<?xml version = "1.0" encoding="UTF-8" standalone="yes"?>
<CPLEXSolution version="1.2">
 <header
   problemName="IloCplex"
   solutionName="p0"
   solutionIndex="-1"
   objectiveValue="0"
   solutionTypeValue="3"
   solutionTypeString="primal"
   solutionStatusValue="127"
   solutionStatusString="integer feasible solution"
   solutionMethodString="mip"
   primalFeasible="0"
   dualFeasible="0"
   writeLevel="3"/>
 <quality
   epInt="1.0000000000000001e-05"
   epRHS="9.9999999999999995e-07"
   maxIntInfeas="0"
   maxPrimalInfeas="0"
   maxX="662"
   maxSlack="562"/>
 <variables>
  <variable index="41" value="1"/>
  <variable index="118" value="1"/>
  <variable index="264" value="1"/>
  <variable index="334" value="1"/>
  <variable index="436" value="1"/>
  <variable index="601" value="1"/>
  <variable index="621" value="1"/>
  <variable index="732" value="1"/>
  <variable index="827" value="1"/>
  <variable index="990" value="1"/>
  <variable index="1012" value="1"/>
  <variable index="1126" value="1"/>
  <variable index="1296" value="1"/>
  <variable index="1398" value="1"/>
  <variable index="1500" value="1"/>
  <variable index="1522" value="1"/>
  <variable index="1663" value="1"/>
  <variable index="1783" value="1"/>
  <variable index="1814" value="1"/>
  <variable index="1980" value="1"/>
  <variable index="2099" value="1"/>
  <variable index="2142" value="1"/>
  <variable index="2297" value="1"/>
  <variable index="2394" value="1"/>
  <variable index="2460" value="1"/>
  <variable index="2525" value="1"/>
  <variable index="2695" value="1"/>
  <variable index="2786" value="1"/>
  <variable index="2819" value="1"/>
  <variable index="3004" value="1"/>
  <variable index="3028" value="1"/>
  <variable index="3131" value="1"/>
  <variable index="3233" value="1"/>
  <variable index="3313" value="1"/>
  <variable index="3437" value="1"/>
  <variable index="3524" value="1"/>
  <variable index="3653" value="1"/>
  <variable index="3746" value="1"/>
  <variable index="3856" value="1"/>
  <variable index="3989" value="1"/>
  <variable index="4049" value="1"/>
  <variable index="4193" value="1"/>
  <variable index="4309" value="1"/>
  <variable index="4371" value="1"/>
  <variable index="4438" value="1"/>
  <variable index="4561" value="1"/>
  <variable index="4672" value="1"/>
  <variable index="4740" value="1"/>
  <variable index="4882" value="1"/>
  <variable index="4973" value="1"/>
  <variable index="5077" value="1"/>
  <variable index="5184" value="1"/>
  <variable index="5247" value="1"/>
  <variable index="5348" value="1"/>
  <variable index="5474" value="1"/>
  <variable index="5607" value="1"/>
  <variable index="5665" value="1"/>
  <variable index="5754" value="1"/>
  <variable index="5866" value="1"/>
  <variable index="5985" value="1"/>
  <variable index="6055" value="1"/>
  <variable index="6168" value="1"/>
  <variable index="6257" value="1"/>
  <variable index="6317" value="1"/>
  <variable index="6452" value="1"/>
  <variable index="6558" value="1"/>
  <variable index="6675" value="1"/>
  <variable index="6767" value="1"/>
  <variable index="6862" value="1"/>
  <variable index="7008" value="1"/>
  <variable index="7029" value="1"/>
  <variable index="7170" value="1"/>
  <variable index="7305" value="1"/>
  <variable index="7402" value="1"/>
  <variable index="7444" value="1"/>
  <variable index="7587" value="1"/>
  <variable index="7651" value="1"/>
  <variable index="7723" value="1"/>
  <variable index="7816" value="1"/>
  <variable index="7930" value="1"/>
  <variable index="8076" value="1"/>
  <variable index="8143" value="1"/>
  <variable index="8281" value="1"/>
  <variable index="8406" value="1"/>
  <variable index="8411" value="1"/>
  <variable index="8545" value="1"/>
  <variable index="8635" value="1"/>
  <variable index="8778" value="1"/>
  <variable index="8903" value="1"/>
  <variable index="8959" value="1"/>
  <variable index="9015" value="1"/>
  <variable index="9188" value="1"/>
  <variable index="9250" value="1"/>
  <variable index="9310" value="1"/>
  <variable index="9439" value="1"/>
  <variable index="9569" value="1"/>
  <variable index="9679" value="1"/>
  <variable index="9720" value="1"/>
  <variable index="9892" value="1"/>
  <variable index="9991" value="1"/>
  <variable index="10020" value="662"/>
 </variables>
</CPLEXSolution>
